feasible solution found by trivial heuristic after 0.2 seconds, objective value 0.000000e+00
presolving:
(round 1, fast)       9004 del vars, 5934 del conss, 0 add conss, 9872 chg bounds, 0 chg sides, 0 chg coeffs, 0 upgd conss, 0 impls, 3209 clqs
(round 2, fast)       9687 del vars, 5934 del conss, 0 add conss, 9872 chg bounds, 0 chg sides, 0 chg coeffs, 0 upgd conss, 0 impls, 3209 clqs
   (1.4s) running MILP presolver
   (1.4s) MILP presolver found nothing
(round 3, exhaustive) 9687 del vars, 5934 del conss, 0 add conss, 9872 chg bounds, 0 chg sides, 0 chg coeffs, 5589 upgd conss, 0 impls, 3209 clqs
   (1.4s) probing: 51/2519 (2.0%) - 0 fixings, 0 aggregations, 0 implications, 0 bound changes
   (1.4s) probing aborted: 50/50 successive totally useless probings
   (1.5s) symmetry computation started: requiring (bin +, int -, cont +), (fixed: bin -, int +, cont -)
   (1.5s) no symmetry present
presolving (4 rounds: 4 fast, 2 medium, 2 exhaustive):
 9687 deleted vars, 5934 deleted constraints, 0 added constraints, 9872 tightened bounds, 0 added holes, 0 changed sides, 0 changed coefficients
 0 implications, 3209 cliques
presolved problem has 2519 variables (2519 bin, 0 int, 0 impl, 0 cont) and 5589 constraints
   3209 constraints of type <setppc>
   2380 constraints of type <logicor>
Presolving Time: 1.40

 time | node  | left  |LP iter|LP it/n|mem/heur|mdpt |vars |cons |rows |cuts |sepa|confs|strbr|  dualbound   | primalbound  |  gap   | compl. 
t 1.6s|     1 |     0 |     0 |     - | trivial|   0 |2519 |5589 |   0 |   0 |  0 |   0 |   0 | 5.680089e+06 | 5.645103e+06 |   0.62%| unknown
p 1.6s|     1 |     0 |     0 |     - |   locks|   0 |2519 |5589 |5589 |   0 |  0 |   0 |   0 | 5.680089e+06 | 5.650906e+06 |   0.52%| unknown
i 1.6s|     1 |     0 |     0 |     - |  oneopt|   0 |2519 |5589 |5589 |   0 |  0 |   0 |   0 | 5.680089e+06 | 5.651166e+06 |   0.51%| unknown
  1.9s|     1 |     0 |  1091 |     - |   168M |   0 |2519 |5589 |5589 |   0 |  0 |   0 |   0 | 5.653764e+06 | 5.651166e+06 |   0.05%| unknown
  2.0s|     1 |     0 |  1190 |     - |   169M |   0 |2519 |5589 |5590 |   1 |  1 |   0 |   0 | 5.653737e+06 | 5.651166e+06 |   0.05%| unknown
  2.1s|     1 |     0 |  1275 |     - |   170M |   0 |2519 |5589 |5591 |   2 |  2 |   0 |   0 | 5.653721e+06 | 5.651166e+06 |   0.05%| unknown
  2.2s|     1 |     0 |  1400 |     - |   172M |   0 |2519 |5589 |5592 |   3 |  3 |   0 |   0 | 5.653708e+06 | 5.651166e+06 |   0.04%| unknown
  2.3s|     1 |     0 |  1476 |     - |   173M |   0 |2519 |5589 |5593 |   4 |  4 |   0 |   0 | 5.653701e+06 | 5.651166e+06 |   0.04%| unknown
  2.6s|     1 |     0 |  1583 |     - |   174M |   0 |2519 |5589 |5594 |   5 |  5 |   0 |   0 | 5.653696e+06 | 5.651166e+06 |   0.04%| unknown
  2.7s|     1 |     0 |  1702 |     - |   176M |   0 |2519 |5589 |5595 |   6 |  6 |   0 |   0 | 5.653687e+06 | 5.651166e+06 |   0.04%| unknown
  2.9s|     1 |     0 |  1817 |     - |   178M |   0 |2519 |5589 |5596 |   7 |  7 |   0 |   0 | 5.653676e+06 | 5.651166e+06 |   0.04%| unknown
  3.0s|     1 |     0 |  1904 |     - |   178M |   0 |2519 |5589 |5597 |   8 |  8 |   0 |   0 | 5.653670e+06 | 5.651166e+06 |   0.04%| unknown
  3.2s|     1 |     0 |  2018 |     - |   179M |   0 |2519 |5589 |5598 |   9 |  9 |   0 |   0 | 5.653666e+06 | 5.651166e+06 |   0.04%| unknown
  3.3s|     1 |     0 |  2114 |     - |   182M |   0 |2519 |5589 |5600 |  11 | 10 |   0 |   0 | 5.653660e+06 | 5.651166e+06 |   0.04%| unknown
  3.4s|     1 |     0 |  2183 |     - |   182M |   0 |2519 |5589 |5601 |  12 | 11 |   0 |   0 | 5.653659e+06 | 5.651166e+06 |   0.04%| unknown
 time | node  | left  |LP iter|LP it/n|mem/heur|mdpt |vars |cons |rows |cuts |sepa|confs|strbr|  dualbound   | primalbound  |  gap   | compl. 
  3.4s|     1 |     0 |  2264 |     - |   183M |   0 |2519 |5589 |5602 |  13 | 12 |   0 |   0 | 5.653656e+06 | 5.651166e+06 |   0.04%| unknown
  3.5s|     1 |     0 |  2295 |     - |   184M |   0 |2519 |5589 |5603 |  14 | 13 |   0 |   0 | 5.653654e+06 | 5.651166e+06 |   0.04%| unknown
  3.5s|     1 |     0 |  2326 |     - |   184M |   0 |2519 |5589 |5605 |  16 | 14 |   0 |   0 | 5.653654e+06 | 5.651166e+06 |   0.04%| unknown
  3.6s|     1 |     0 |  2334 |     - |   185M |   0 |2519 |5589 |5606 |  17 | 15 |   0 |   0 | 5.653654e+06 | 5.651166e+06 |   0.04%| unknown
  3.6s|     1 |     0 |  2356 |     - |   185M |   0 |2519 |5589 |5607 |  18 | 16 |   0 |   0 | 5.653653e+06 | 5.651166e+06 |   0.04%| unknown
d 3.9s|     1 |     0 |  2947 |     - |farkasdi|   0 |2519 |5589 |5607 |   0 | 18 |   0 |   0 | 5.653653e+06 | 5.651206e+06 |   0.04%| unknown
L11.1s|     1 |     0 |  2947 |     - |    rens|   0 |2519 |5589 |5607 |  18 | 18 |   0 |   0 | 5.653653e+06 | 5.651819e+06 |   0.03%| unknown
 12.7s|     1 |     0 |  2947 |     - |   186M |   0 |2519 |5589 |5607 |  18 | 18 |   0 |   0 | 5.653653e+06 | 5.651819e+06 |   0.03%| unknown
 20.2s|     1 |     2 |  2947 |     - |   186M |   0 |2519 |5589 |5607 |  18 | 20 |   0 |  34 | 5.653551e+06 | 5.651819e+06 |   0.03%| unknown
*36.8s|    11 |     2 |  5136 | 278.0 |    LP  |   6 |2519 |5634 |5603 |  18 |  2 |  45 | 250 | 5.653551e+06 | 5.651857e+06 |   0.03%|  33.34%
 68.1s|   100 |     9 | 13035 | 107.9 |   198M |  12 |2519 |5686 |5615 |  62 |  1 | 104 | 505 | 5.653299e+06 | 5.651857e+06 |   0.03%|  64.24%
 74.6s|   200 |    27 | 20062 |  89.0 |   203M |  23 |2519 |5689 |5615 |  96 |  0 | 107 | 517 | 5.653299e+06 | 5.651857e+06 |   0.03%|  64.45%
*79.7s|   278 |    30 | 24806 |  81.0 |    LP  |  24 |2519 |5691 |5614 | 129 |  1 | 109 | 526 | 5.652826e+06 | 5.652017e+06 |   0.01%|  76.03%
 80.1s|   300 |    24 | 25851 |  78.6 |   206M |  24 |2519 |5673 |5614 | 129 |  1 | 109 | 526 | 5.652477e+06 | 5.652017e+06 |   0.01%|  86.80%

SCIP Status        : problem is solved [optimal solution found]
Solving Time (sec) : 80.53
Solving Nodes      : 326
Primal Bound       : +5.65201696002827e+06 (328 solutions)
Dual Bound         : +5.65201696002827e+06
Gap                : 0.00 %
Solve Status: optimal
Solve Time: 80.55 seconds
